342 5
10 10 10 10 10 

0 0 0 0 0 0 5 2 14 26 38 50 
0 0 0 0 0 0 4 3 6 12 55 
4 0 0 1 0 0 2 9 4 
9 0 0 1 0 0 2 8 5 
8 0 0 3 0 0 2 10 7 
3 0 0 2 0 0 1 7 
10 0 0 2 0 0 1 11 
5 0 0 5 0 0 1 10 
6 0 0 2 0 0 1 10 
5 0 0 4 0 0 1 13 
4 0 0 3 0 0 1 13 
6 0 0 2 0 0 1 13 
0 0 0 0 0 0 1 62 
0 0 0 0 0 0 3 15 19 24 
6 0 0 1 0 0 2 23 16 
9 0 0 2 0 0 1 17 
6 0 0 3 0 0 3 22 20 18 
2 0 0 3 0 0 1 21 
1 0 0 2 0 0 1 20 
3 0 0 3 0 0 1 25 
4 0 0 4 0 0 1 25 
2 0 0 3 0 0 2 25 297 
9 0 0 2 0 0 1 25 
3 0 0 2 0 0 1 25 
0 0 0 0 0 0 1 62 
0 0 0 0 0 0 3 27 28 29 
8 1 0 0 0 0 3 34 30 323 
1 3 0 0 0 0 2 34 30 
6 2 0 0 0 0 1 30 
10 2 0 0 0 0 2 33 31 
2 3 0 0 0 0 1 32 
1 3 0 0 0 0 1 36 
4 4 0 0 0 0 1 35 
1 1 0 0 0 0 1 35 
9 2 0 0 0 0 1 37 
4 4 0 0 0 0 1 37 
0 0 0 0 0 0 1 62 
0 0 0 0 0 0 4 39 40 42 302 
5 0 0 1 0 0 2 47 41 
5 0 0 4 0 0 3 47 45 43 
2 0 0 2 0 0 2 44 43 
5 0 0 4 0 0 2 44 43 
3 0 0 3 0 0 1 46 
1 0 0 4 0 0 1 45 
4 0 0 2 0 0 1 48 
6 0 0 2 0 0 1 48 
9 0 0 2 0 0 1 48 
10 0 0 1 0 0 1 49 
0 0 0 0 0 0 1 62 
0 0 0 0 0 0 3 51 52 54 
2 1 0 0 0 0 3 58 56 53 
3 2 0 0 0 0 2 56 53 
10 3 0 0 0 0 2 57 55 
7 2 0 0 0 0 2 56 55 
10 5 0 0 0 0 1 59 
5 4 0 0 0 0 1 59 
9 1 0 0 0 0 1 59 
3 1 0 0 0 0 1 59 
1 4 0 0 0 0 2 60 303 
10 2 0 0 0 0 1 61 
0 0 0 0 0 0 1 62 
0 0 0 0 0 0 5 63 95 127 139 171 
0 0 0 0 0 0 8 64 87 88 89 90 91 92 93 
1 0 1 0 1 1 2 86 65 
5 0 1 0 2 5 3 85 84 66 
5 0 2 0 4 1 1 67 
10 0 2 0 3 2 1 68 
10 0 3 0 2 2 2 83 69 
1 0 1 0 3 3 3 82 81 70 
6 0 4 0 3 4 1 71 
8 0 1 0 3 2 2 80 72 
9 0 2 0 3 4 1 73 
4 0 1 0 2 2 2 79 74 
7 0 4 0 6 1 1 75 
4 0 1 0 2 2 1 76 
1 0 8 0 2 3 1 77 
1 0 6 0 3 3 1 78 
9 0 3 0 1 5 2 94 333 
9 0 2 0 2 2 1 94 
8 0 2 0 2 4 1 94 
5 0 2 0 3 3 1 94 
9 0 3 0 2 4 1 94 
7 0 1 0 4 3 1 94 
6 0 4 0 2 1 1 94 
1 0 3 0 3 2 1 94 
9 0 2 0 3 3 1 94 
10 0 3 0 2 1 1 94 
6 0 3 0 2 2 1 94 
10 0 1 0 1 1 1 94 
8 0 4 0 3 3 1 94 
5 0 1 0 3 2 1 94 
3 0 2 0 2 1 1 94 
9 0 2 0 1 3 1 94 
0 0 0 0 0 0 1 317 
0 0 0 0 0 0 3 96 97 109 
5 1 1 1 0 0 2 115 98 
6 2 3 5 0 0 2 115 98 
5 2 3 3 0 0 2 102 99 
7 2 2 5 0 0 2 105 100 
2 1 1 4 0 0 2 116 101 
8 2 1 2 0 0 2 112 103 
4 3 6 1 0 0 2 105 104 
9 4 7 2 0 0 1 104 
2 5 2 2 0 0 3 120 111 106 
10 2 2 2 0 0 3 120 117 107 
3 3 2 3 0 0 2 117 107 
9 2 1 2 0 0 2 108 145 
1 2 2 1 0 0 1 110 
7 2 3 3 0 0 1 110 
8 4 1 4 0 0 2 124 113 
9 3 2 2 0 0 2 124 113 
10 3 2 4 0 0 4 125 124 119 114 
4 5 3 5 0 0 3 125 119 114 
9 2 2 2 0 0 3 123 122 118 
4 4 3 2 0 0 3 123 122 118 
1 2 4 3 0 0 2 122 121 
8 5 3 2 0 0 1 118 
5 1 1 1 0 0 1 121 
2 3 4 4 0 0 1 122 
2 2 3 2 0 0 1 124 
6 1 2 2 0 0 1 126 
10 2 2 2 0 0 1 126 
3 2 1 2 0 0 1 126 
6 2 2 1 0 0 1 126 
2 1 4 1 0 0 1 126 
0 0 0 0 0 0 1 317 
0 0 0 0 0 0 3 128 130 132 
10 0 0 1 0 0 1 129 
1 0 0 5 0 0 2 133 131 
4 0 0 2 0 0 1 131 
6 0 0 2 0 0 3 137 135 134 
10 0 0 1 0 0 3 137 135 134 
9 0 0 2 0 0 3 137 134 299 
3 0 0 3 0 0 1 136 
8 0 0 4 0 0 1 136 
9 0 0 3 0 0 1 138 
10 0 0 2 0 0 1 138 
0 0 0 0 0 0 4 203 225 247 259 
0 0 0 0 0 0 3 140 141 169 
4 1 0 0 1 1 2 168 142 
6 4 0 0 3 4 3 168 151 143 
9 4 0 0 2 4 2 151 143 
1 1 0 0 1 3 1 144 
8 3 0 0 3 3 3 167 166 145 
5 2 0 0 4 3 1 146 
5 2 0 0 1 1 2 165 147 
3 1 0 0 2 2 3 164 163 148 
8 1 0 0 3 1 1 149 
1 2 0 0 4 3 1 150 
2 3 0 0 2 2 3 162 152 309 
3 1 0 0 1 3 4 162 157 156 154 
9 3 0 0 1 1 1 153 
1 1 0 0 5 3 3 160 156 154 
10 2 0 0 2 3 3 161 158 155 
3 5 0 0 4 3 1 159 
2 3 0 0 1 1 1 158 
9 3 0 0 3 1 1 160 
9 2 0 0 4 1 1 170 
7 3 0 0 3 5 1 170 
7 2 0 0 4 4 1 170 
7 2 0 0 5 2 1 170 
4 4 0 0 3 4 1 170 
4 3 0 0 1 1 1 170 
7 4 0 0 2 2 1 170 
4 2 0 0 3 2 1 170 
4 3 0 0 2 1 1 170 
10 2 0 0 2 3 1 170 
7 3 0 0 1 3 1 170 
10 3 0 0 2 5 1 170 
0 0 0 0 0 0 1 317 
0 0 0 0 0 0 4 172 199 200 201 
9 1 1 0 1 0 3 198 197 173 
3 1 2 0 2 0 3 196 195 174 
6 3 2 0 3 0 2 175 306 
6 4 1 0 6 0 3 194 193 176 
4 4 4 0 2 0 1 177 
2 2 5 0 5 0 2 192 178 
5 3 1 0 2 0 1 179 
5 3 1 0 2 0 3 191 190 180 
10 4 2 0 2 0 1 181 
3 2 2 0 1 0 2 189 182 
5 3 2 0 3 0 3 188 187 183 
6 1 4 0 2 0 1 184 
10 3 2 0 1 0 1 185 
3 2 2 0 2 0 1 186 
9 3 2 0 2 0 1 202 
10 3 2 0 4 0 1 202 
8 2 4 0 4 0 1 202 
6 2 2 0 3 0 1 202 
6 2 1 0 1 0 1 202 
3 5 6 0 2 0 1 202 
10 1 4 0 2 0 1 202 
4 2 2 0 3 0 1 202 
3 1 3 0 4 0 1 202 
10 2 2 0 1 0 1 202 
7 5 3 0 3 0 1 202 
10 1 3 0 4 0 1 202 
3 3 4 0 2 0 1 202 
2 3 4 0 1 0 1 202 
10 1 1 0 4 0 1 202 
2 3 1 0 1 0 1 202 
0 0 0 0 0 0 1 317 
0 0 0 0 0 0 1 204 
9 0 0 0 1 1 2 209 205 
6 0 0 0 1 3 1 206 
2 0 0 0 1 5 2 215 207 
4 0 0 0 2 3 2 223 208 
5 0 0 0 2 1 4 222 221 214 210 
3 0 0 0 3 3 6 222 221 220 218 214 211 
8 0 0 0 3 3 3 220 218 211 
1 0 0 0 4 4 2 219 212 
4 0 0 0 3 3 2 217 213 
9 0 0 0 3 1 1 216 
9 0 0 0 3 2 1 216 
7 0 0 0 2 4 1 218 
2 0 0 0 1 2 1 224 
3 0 0 0 4 1 2 224 290 
7 0 0 0 3 1 1 224 
7 0 0 0 4 2 1 224 
1 0 0 0 2 5 1 224 
2 0 0 0 1 1 1 224 
9 0 0 0 3 1 1 224 
1 0 0 0 4 4 1 224 
0 0 0 0 0 0 1 317 
0 0 0 0 0 0 5 226 233 243 244 245 
4 0 0 0 1 1 1 227 
9 0 0 0 2 3 3 242 241 228 
1 0 0 0 3 2 4 240 239 238 229 
4 0 0 0 2 3 1 230 
8 0 0 0 4 2 2 237 231 
2 0 0 0 4 2 1 232 
8 0 0 0 2 3 2 234 271 
1 0 0 0 2 2 2 238 236 
7 0 0 0 4 6 1 235 
3 0 0 0 3 2 1 236 
9 0 0 0 2 2 1 246 
10 0 0 0 3 5 1 246 
8 0 0 0 2 2 1 246 
7 0 0 0 2 2 1 246 
9 0 0 0 2 1 1 246 
6 0 0 0 2 1 1 246 
3 0 0 0 3 4 1 246 
1 0 0 0 4 1 1 246 
6 0 0 0 1 3 1 246 
2 0 0 0 2 3 1 246 
0 0 0 0 0 0 1 317 
0 0 0 0 0 0 3 248 250 254 
10 0 0 0 1 0 2 252 249 
6 0 0 0 3 0 2 256 251 
8 0 0 0 2 0 3 257 256 253 
6 0 0 0 2 0 3 257 253 312 
6 0 0 0 3 0 2 256 253 
9 0 0 0 4 0 1 255 
2 0 0 0 2 0 1 255 
1 0 0 0 6 0 1 258 
3 0 0 0 1 0 1 258 
1 0 0 0 1 0 1 258 
0 0 0 0 0 0 3 281 293 305 
0 0 0 0 0 0 1 260 
10 1 1 0 0 0 2 263 261 
2 3 4 0 0 0 1 262 
1 3 4 0 0 0 1 264 
10 3 1 0 0 0 1 264 
9 3 2 0 0 0 2 266 265 
10 3 5 0 0 0 3 279 271 267 
4 5 2 0 0 0 4 272 271 270 269 
3 2 1 0 0 0 3 272 270 268 
7 2 2 0 0 0 1 269 
6 3 3 0 0 0 3 277 276 273 
1 5 2 0 0 0 3 278 277 275 
7 2 3 0 0 0 2 276 275 
1 1 1 0 0 0 1 274 
1 4 1 0 0 0 1 275 
4 2 2 0 0 0 1 275 
5 3 4 0 0 0 1 280 
10 1 4 0 0 0 1 280 
7 1 4 0 0 0 1 280 
7 2 2 0 0 0 1 280 
5 1 2 0 0 0 1 280 
0 0 0 0 0 0 1 317 
0 0 0 0 0 0 2 282 284 
2 0 0 0 1 0 2 286 283 
7 0 0 0 2 0 2 288 285 
2 0 0 0 1 0 1 285 
4 0 0 0 1 0 2 289 287 
1 0 0 0 2 0 1 287 
8 0 0 0 3 0 2 291 290 
2 0 0 0 3 0 2 291 290 
1 0 0 0 5 0 1 290 
5 0 0 0 3 0 1 292 
4 0 0 0 4 0 1 292 
0 0 0 0 0 0 1 317 
0 0 0 0 0 0 2 294 295 
3 0 0 1 0 0 1 296 
8 0 0 2 0 0 1 296 
3 0 0 3 0 0 1 297 
5 0 0 3 0 0 3 300 299 298 
3 0 0 3 0 0 3 303 302 301 
10 0 0 2 0 0 3 303 302 301 
8 0 0 3 0 0 3 303 302 301 
2 0 0 2 0 0 1 304 
1 0 0 3 0 0 1 304 
2 0 0 3 0 0 1 304 
0 0 0 0 0 0 1 317 
0 0 0 0 0 0 3 306 307 308 
2 0 0 0 1 0 3 315 312 309 
6 0 0 0 3 0 3 314 312 310 
5 0 0 0 4 0 1 309 
7 0 0 0 1 0 2 314 310 
9 0 0 0 3 0 1 311 
2 0 0 0 1 0 1 313 
7 0 0 0 3 0 1 313 
10 0 0 0 2 0 1 316 
2 0 0 0 2 0 1 316 
5 0 0 0 5 0 1 316 
0 0 0 0 0 0 1 317 
0 0 0 0 0 0 2 318 330 
0 0 0 0 0 0 3 319 320 325 
3 0 0 0 1 0 1 321 
10 0 0 0 2 0 1 321 
9 0 0 0 3 0 2 323 322 
8 0 0 0 1 0 3 328 326 324 
3 0 0 0 3 0 2 327 326 
3 0 0 0 2 0 1 327 
9 0 0 0 4 0 1 326 
7 0 0 0 3 0 1 329 
1 0 0 0 3 0 1 329 
5 0 0 0 3 0 1 329 
0 0 0 0 0 0 1 342 
0 0 0 0 0 0 4 331 332 336 340 
8 0 0 1 0 0 3 339 338 333 
4 0 0 3 0 0 2 338 335 
6 0 0 3 0 0 1 334 
1 0 0 4 0 0 1 335 
5 0 0 2 0 0 1 337 
10 0 0 4 0 0 1 337 
6 0 0 1 0 0 1 341 
5 0 0 1 0 0 1 341 
3 0 0 2 0 0 1 341 
5 0 0 4 0 0 1 341 
0 0 0 0 0 0 1 342 
0 0 0 0 0 0 0 
